%nprocshared=4
%mem=4000MB
%chk=I_ppa_vacu_scan_B.chk
#popt=(modredundant)  gen pseudo=read  m062x  nosymm iop(6/7=3)  iop(1/8=4)    

I_ppa_vacu_scan_B

-1 1
 C                 -1.21212848   -0.26083581    0.00765761
 C                  0.17382534   -0.19278548   -0.00778788
 C                  0.82923669    1.04081593   -0.02962672
 C                  0.06440355    2.21153017   -0.03652510
 C                 -1.32047223    2.15019241   -0.02157258
 C                 -1.96801897    0.91355057    0.00070292
 H                 -1.71269971   -1.22109953    0.02555942
 H                  0.75713533   -1.10617288   -0.00217466
 H                  0.56333391    3.17327590   -0.05321015
 H                 -1.91917756    3.05380828   -0.02641682
 I                  2.96600702    1.14358462   -0.05078671
 H                 -4.92578507   -0.24406545    0.05000689
 C                 -3.44485178    0.89600731    0.01691298
 O                 -4.15989920    1.86698372    0.01056869
 O                 -3.96715311   -0.35438339    0.04101913
C      9.53469715      2.54051081      0.00523218
O      8.95878639      1.43180938     -0.11013196
O      9.06074497      3.67057439      0.12885883
C     11.03985571      2.44982897     -0.01233562
C     12.24274580      2.38815466     -0.02385326
H     13.30388434      2.33247895     -0.03406292
